(set-info :source  loris-7.ddns.comp.nus.edu.sg/~project/hip/) 
;Variables declarations
(declare-fun Anon_4450 () Int)
(declare-fun resr_4449 () Int)
(declare-fun tm () Int)
(declare-fun m2_3757 () Int)
(declare-fun tm_4066 () Int)
(declare-fun m1_3753 () Int)
(declare-fun resn_4456 () Int)
(declare-fun tmp2_4457 () Int)
(declare-fun cn () Int)
(declare-fun cm () Int)
(declare-fun Anon_60 () Int)
(declare-fun m_4127 () Int)
(declare-fun Anon_57 () Int)
(declare-fun m_4219 () Int)
(declare-fun flted_74_4090 () Int)
(declare-fun n_3750 () Int)
(declare-fun p_4511 () Int)
(declare-fun m1_4512 () Int)
(declare-fun Anon_4514 () Int)
(declare-fun Anon_4452 () Int)
(declare-fun am () Int)
(declare-fun resll_4451 () Int)
(declare-fun n1_4513 () Int)
(declare-fun n_4220 () Int)
(declare-fun m () Int)
(declare-fun m2_4214 () Int)
(declare-fun b_4108 () Int)
(declare-fun n2_4215 () Int)
(declare-fun n_4207 () Int)
(declare-fun tn () Int)
(declare-fun b () Int)
(declare-fun n2_3758 () Int)
(declare-fun tn_4067 () Int)
(declare-fun resb_4092 () Int)
(declare-fun resn_4091 () Int)
(declare-fun n1_3754 () Int)
(declare-fun n () Int)
(declare-fun m1_4210 () Int)
(declare-fun n1_4211 () Int)
(declare-fun n_4128 () Int)
(declare-fun resln_4458 () Int)
(declare-fun tmp1_4455 () Int)
(declare-fun an () Int)
(declare-fun n_4239 () Int)
(declare-fun m_4238 () Int)
(declare-fun q_4515 () Int)
(declare-fun Anon_4454 () Int)
(declare-fun bm () Int)
(declare-fun bn () Int)
(declare-fun reslr_4453 () Int)
;Relations declarations
;Axioms assertions
;Antecedent
(assert (<= 0 m1_3753))
(assert (<= 0 tm_4066))
(assert (< 0 tm_4066))
(assert (<= 0 m2_3757))
(assert (or (and (and (and (< resr_4449 1) (= cm 0)) (= cn 0)) (= Anon_4450 1)) (and (and (and (and (and (<= 0 Anon_4450) (<= (+ (- 0 cn) 2) Anon_4450)) (<= Anon_4450 cn)) (<= Anon_4450 2)) (<= 1 cm)) (> resr_4449 0))))
(assert (= tm (+ (+ m2_3757 1) m1_3753)))
(assert (= tm_4066 m2_3757))
(assert (= flted_74_4090 (+ 1 tm_4066)))
(assert (= m_4127 m1_3753))
(assert (= resn_4456 (+ 1 tmp2_4457)))
(assert (<= 0 cn))
(assert (<= 0 cm))
(assert (<= 0 am))
(assert (or (and (= tmp2_4457 resln_4458) (>= resln_4458 cn)) (and (= tmp2_4457 cn) (< resln_4458 cn))))
(assert (<= 0 n_4128))
(assert (<= 0 m_4127))
(assert (<= 0 n_4220))
(assert (<= 0 m_4219))
(assert (= cn n_4220))
(assert (= cm m_4219))
(assert (= Anon_60 n_4207))
(assert (= am m_4127))
(assert (= Anon_57 n_3750))
(assert (<= 0 n1_4211))
(assert (<= 0 m1_4210))
(assert (<= 0 n2_4215))
(assert (<= 0 m2_4214))
(assert (= n_4220 n2_4215))
(assert (= m_4219 m2_4214))
(assert (<= 0 n1_3754))
(assert (<= b_4108 2))
(assert (<= 0 b_4108))
(assert (<= 0 m))
(assert (<= resb_4092 2))
(assert (<= 0 resb_4092))
(assert (<= 0 resn_4091))
(assert (<= 0 flted_74_4090))
(assert (= b_4108 resb_4092))
(assert (= m flted_74_4090))
(assert (<= 0 tn_4067))
(assert (<= 0 n2_3758))
(assert (= n_3750 tn))
(assert (= p_4511 resll_4451))
(assert (= m1_4512 am))
(assert (= Anon_4514 Anon_4452))
(assert (or (and (and (and (< resll_4451 1) (= am 0)) (= an 0)) (= Anon_4452 1)) (and (and (and (and (and (<= 0 Anon_4452) (<= (+ (- 0 an) 2) Anon_4452)) (<= Anon_4452 an)) (<= Anon_4452 2)) (<= 1 am)) (> resll_4451 0))))
(assert (= n1_4513 an))
(assert (< n_4239 n_4220))
(assert (= m (+ (+ m2_4214 1) m1_4210)))
(assert (exists ((max_4534 Int)) (and (= n (+ max_4534 1)) (or (and (= max_4534 n1_4211) (>= n1_4211 n2_4215)) (and (= max_4534 n2_4215) (< n1_4211 n2_4215))))))
(assert (<= (+ 0 n2_4215) (+ n1_4211 1)))
(assert (<= n1_4211 (+ 1 n2_4215)))
(assert (= (+ b_4108 n2_4215) (+ 1 n1_4211)))
(assert (= n_4207 n))
(assert (exists ((max_4535 Int)) (and (= tn (+ max_4535 1)) (or (and (= max_4535 n1_3754) (>= n1_3754 n2_3758)) (and (= max_4535 n2_3758) (< n1_3754 n2_3758))))))
(assert (<= (+ 0 n2_3758) (+ n1_3754 1)))
(assert (<= n1_3754 (+ 1 n2_3758)))
(assert (= (+ b n2_3758) (+ 1 n1_3754)))
(assert (= tn_4067 n2_3758))
(assert (< 0 tn_4067))
(assert (or (= tn_4067 resn_4091) (and (= resn_4091 (+ 1 tn_4067)) (not (= resb_4092 1)))))
(assert (= n resn_4091))
(assert (<= 0 n))
(assert (= n_4128 n1_3754))
(assert (= (+ 2 n_4128) n))
(assert (= m_4238 m1_4210))
(assert (= n_4239 n1_4211))
(assert (= an n_4128))
(assert (<= 0 m_4238))
(assert (<= 0 n_4239))
(assert (= resln_4458 (+ 1 tmp1_4455)))
(assert (<= 0 an))
(assert (<= 0 bn))
(assert (<= 0 bm))
(assert (or (and (= tmp1_4455 an) (>= an bn)) (and (= tmp1_4455 bn) (< an bn))))
(assert (= bn n_4239))
(assert (= bm m_4238))
(assert (= q_4515 reslr_4453))
(assert (or (and (and (and (< reslr_4453 1) (= bm 0)) (= bn 0)) (= Anon_4454 1)) (and (and (and (and (and (<= 0 Anon_4454) (<= (+ (- 0 bn) 2) Anon_4454)) (<= Anon_4454 bn)) (<= Anon_4454 2)) (<= 1 bm)) (> reslr_4453 0))))
;Negation of Consequence
(assert (not (or (= bm 0) (or (= bn 0) (< reslr_4453 1)))))
(check-sat)